c A SAT instance generated from a 2-CNF formula that had 36 clauses and 5 variables
p cnf 5 36
-2 3 0
1 3 0
4 5 0
3 4 0
1 -3 0
2 -5 0
-4 5 0
-1 5 0
-3 -1 0
-5 4 0
-3 5 0
-3 2 0
-5 3 0
-1 2 0
3 5 0
-5 1 0
-3 1 0
-3 -1 0
-3 -2 0
-4 2 0
3 -1 0
3 5 0
-4 -1 0
-4 -2 0
-4 3 0
-5 -1 0
2 1 0
-4 3 0
3 -4 0
-3 4 0
2 -3 0
4 -3 0
3 4 0
-4 2 0
5 1 0
-4 5 0
